
;this file is automatically generated: Mon Feb 10 17:01:40 CST 2020

;declarations generated

(declare-fun oclExcludes ( Int Int) Bool)
(declare-fun type_36c9f93f_24ab_431c_9dbd_e01988912ea8_Class19 ( Int) Bool)
(declare-fun Cardinality ( Int) Int)
(declare-fun type_36c9f93f_24ab_431c_9dbd_e01988912ea8_Class46 ( Int) Bool)
(declare-fun oclSelect ( Int Bool) Int)
(declare-fun type_36c9f93f_24ab_431c_9dbd_e01988912ea8_Class5 ( Int) Bool)
(declare-fun Enum0 ( Int) Int)
(declare-fun Enum1 ( Int) Int)
(declare-fun Enum2 ( Int) Int)
(declare-fun class5_Class5BoolAttr0 ( Int) Bool)
(declare-fun type_36c9f93f_24ab_431c_9dbd_e01988912ea8_Class2 ( Int) Bool)
(declare-fun obj_3538b099_9fd1_4890_8e00_5e7db5aac2fb ( Int) Int)
(declare-fun container_ ( Int) Int)
(declare-fun class5_Class5IntAttr3 ( Int) Int)
(declare-fun oclIncludes ( Int Int) Bool)
(declare-fun class5_Class5IntAttr4 ( Int) Int)
(declare-fun ObjAt ( Int Int) Int)

;formula(s) generated
(assert (! (forall ((c5_2 Int)(c5_1 Int)) (=> (and (and (and (and ( type_36c9f93f_24ab_431c_9dbd_e01988912ea8_Class5 c5_1 )  ( type_36c9f93f_24ab_431c_9dbd_e01988912ea8_Class46 c5_1 ) ) ( type_36c9f93f_24ab_431c_9dbd_e01988912ea8_Class19 c5_1 ) ) ( type_36c9f93f_24ab_431c_9dbd_e01988912ea8_Class2 c5_1 ) ) (and (and (and ( type_36c9f93f_24ab_431c_9dbd_e01988912ea8_Class5 c5_2 )  ( type_36c9f93f_24ab_431c_9dbd_e01988912ea8_Class46 c5_2 ) ) ( type_36c9f93f_24ab_431c_9dbd_e01988912ea8_Class19 c5_2 ) ) ( type_36c9f93f_24ab_431c_9dbd_e01988912ea8_Class2 c5_2 ) )) (or (<= ( class5_Class5IntAttr3 ( obj_3538b099_9fd1_4890_8e00_5e7db5aac2fb c5_1 )  )  ( class5_Class5IntAttr4 ( obj_3538b099_9fd1_4890_8e00_5e7db5aac2fb c5_2 )  ) ) (or (forall ((c5_2 Int)(c5_1 Int)) (=> (and (and (and (and ( type_36c9f93f_24ab_431c_9dbd_e01988912ea8_Class5 c5_1 )  ( type_36c9f93f_24ab_431c_9dbd_e01988912ea8_Class46 c5_1 ) ) ( type_36c9f93f_24ab_431c_9dbd_e01988912ea8_Class19 c5_1 ) ) ( type_36c9f93f_24ab_431c_9dbd_e01988912ea8_Class2 c5_1 ) ) (and (and (and ( type_36c9f93f_24ab_431c_9dbd_e01988912ea8_Class5 c5_2 )  ( type_36c9f93f_24ab_431c_9dbd_e01988912ea8_Class46 c5_2 ) ) ( type_36c9f93f_24ab_431c_9dbd_e01988912ea8_Class19 c5_2 ) ) ( type_36c9f93f_24ab_431c_9dbd_e01988912ea8_Class2 c5_2 ) )) (< ( class5_Class5IntAttr3 ( obj_3538b099_9fd1_4890_8e00_5e7db5aac2fb c5_1 )  )  ( class5_Class5IntAttr4 ( obj_3538b099_9fd1_4890_8e00_5e7db5aac2fb c5_2 )  ) ))) (forall ((v Int)) (=> (and (and (and ( type_36c9f93f_24ab_431c_9dbd_e01988912ea8_Class5 v )  ( type_36c9f93f_24ab_431c_9dbd_e01988912ea8_Class46 v ) ) ( type_36c9f93f_24ab_431c_9dbd_e01988912ea8_Class19 v ) ) ( type_36c9f93f_24ab_431c_9dbd_e01988912ea8_Class2 v ) ) (not ( class5_Class5BoolAttr0 ( obj_3538b099_9fd1_4890_8e00_5e7db5aac2fb v )  )  ))))))):named l0))
(assert (! (forall ((c5_2 Int)(c5_1 Int)) (=> (and (and (and (and ( type_36c9f93f_24ab_431c_9dbd_e01988912ea8_Class5 c5_1 )  ( type_36c9f93f_24ab_431c_9dbd_e01988912ea8_Class46 c5_1 ) ) ( type_36c9f93f_24ab_431c_9dbd_e01988912ea8_Class19 c5_1 ) ) ( type_36c9f93f_24ab_431c_9dbd_e01988912ea8_Class2 c5_1 ) ) (and (and (and ( type_36c9f93f_24ab_431c_9dbd_e01988912ea8_Class5 c5_2 )  ( type_36c9f93f_24ab_431c_9dbd_e01988912ea8_Class46 c5_2 ) ) ( type_36c9f93f_24ab_431c_9dbd_e01988912ea8_Class19 c5_2 ) ) ( type_36c9f93f_24ab_431c_9dbd_e01988912ea8_Class2 c5_2 ) )) (= ( class5_Class5IntAttr3 ( obj_3538b099_9fd1_4890_8e00_5e7db5aac2fb c5_1 )  )  ( class5_Class5IntAttr4 ( obj_3538b099_9fd1_4890_8e00_5e7db5aac2fb c5_2 )  ) ))):named l1))
(assert (! (forall ((v Int)) (=> (and (and (and ( type_36c9f93f_24ab_431c_9dbd_e01988912ea8_Class5 v )  ( type_36c9f93f_24ab_431c_9dbd_e01988912ea8_Class46 v ) ) ( type_36c9f93f_24ab_431c_9dbd_e01988912ea8_Class19 v ) ) ( type_36c9f93f_24ab_431c_9dbd_e01988912ea8_Class2 v ) ) (>= ( class5_Class5IntAttr3 ( obj_3538b099_9fd1_4890_8e00_5e7db5aac2fb v )  )  11))):named l2))
(assert (exists ((o Int)) (and (and (and ( type_36c9f93f_24ab_431c_9dbd_e01988912ea8_Class5 ( obj_3538b099_9fd1_4890_8e00_5e7db5aac2fb o )  )  ( type_36c9f93f_24ab_431c_9dbd_e01988912ea8_Class46 ( obj_3538b099_9fd1_4890_8e00_5e7db5aac2fb o )  ) ) ( type_36c9f93f_24ab_431c_9dbd_e01988912ea8_Class19 ( obj_3538b099_9fd1_4890_8e00_5e7db5aac2fb o )  ) ) ( type_36c9f93f_24ab_431c_9dbd_e01988912ea8_Class2 ( obj_3538b099_9fd1_4890_8e00_5e7db5aac2fb o )  ) )))

 ;end of formula 